========================================================== 
File name: C:\DEGR\assets\definitions\MSRCPSP_Gen\200_40_512_5_D.def
Creation date: Wed May 03 10:49:06 CEST 2023
Website: http://imopse.ii.pwr.edu.pl/ 
Reference: 
Myszkowski P. B., Skowronski M. E., Olech L., Oslizlo K., 
Hybrid Ant Colony Optimization in solving Multi-Skill Resource-Constrained Project Scheduling Problem, 
Soft Computing, DOI: DOI 10.1007/s00500-014-1455-x 
========================================================== 
General characteristics: 
Tasks: 200
Resources: 40
Precedence relations: 504
Number of skill types: 5
========================================================== 
ResourceID 	 Salary 	 Skills 
1	 	 	62.8	 	 Q2: 0 	  Q1: 3 	 
2	 	 	82.2	 	 Q4: 0 	  Q0: 1 	 
3	 	 	92.9	 	 Q2: 2 	 
4	 	 	18.3	 	 Q0: 2 	  Q4: 0 	  Q1: 2 	 
5	 	 	69.6	 	 Q4: 2 	  Q3: 2 	  Q1: 3 	 
6	 	 	99.0	 	 Q4: 3 	  Q3: 0 	 
7	 	 	50.8	 	 Q2: 1 	  Q3: 3 	  Q1: 0 	 
8	 	 	27.9	 	 Q3: 2 	  Q1: 2 	 
9	 	 	15.4	 	 Q0: 0 	 
10	 	 	72.9	 	 Q4: 1 	  Q3: 1 	  Q1: 2 	  Q2: 1 	 
11	 	 	41.1	 	 Q2: 3 	  Q3: 0 	  Q1: 2 	  Q0: 1 	 
12	 	 	63.7	 	 Q2: 3 	 
13	 	 	72.1	 	 Q0: 3 	  Q3: 1 	  Q4: 2 	  Q2: 1 	 
14	 	 	55.9	 	 Q4: 3 	  Q2: 3 	 
15	 	 	78.9	 	 Q4: 3 	 
16	 	 	59.1	 	 Q4: 1 	  Q1: 3 	 
17	 	 	84.8	 	 Q1: 2 	  Q2: 1 	  Q0: 0 	  Q4: 0 	 
18	 	 	45.1	 	 Q2: 0 	  Q3: 3 	  Q1: 0 	  Q4: 1 	 
19	 	 	26.1	 	 Q3: 0 	 
20	 	 	86.6	 	 Q4: 3 	  Q0: 3 	  Q1: 0 	  Q2: 0 	 
21	 	 	30.5	 	 Q2: 1 	  Q1: 0 	  Q3: 3 	  Q4: 2 	 
22	 	 	20.1	 	 Q4: 3 	  Q0: 1 	  Q3: 2 	  Q2: 3 	 
23	 	 	39.9	 	 Q0: 2 	  Q1: 0 	  Q2: 2 	  Q4: 0 	 
24	 	 	73.0	 	 Q0: 3 	  Q3: 2 	  Q2: 2 	  Q1: 1 	 
25	 	 	28.5	 	 Q0: 3 	 
26	 	 	58.1	 	 Q2: 0 	  Q4: 1 	  Q3: 0 	  Q0: 1 	 
27	 	 	95.3	 	 Q0: 1 	  Q4: 2 	  Q1: 2 	  Q2: 0 	 
28	 	 	57.3	 	 Q4: 0 	 
29	 	 	81.8	 	 Q3: 0 	 
30	 	 	44.8	 	 Q0: 0 	 
31	 	 	90.6	 	 Q4: 3 	  Q0: 0 	  Q3: 2 	  Q2: 2 	 
32	 	 	42.5	 	 Q2: 1 	  Q1: 1 	 
33	 	 	32.2	 	 Q2: 0 	  Q1: 3 	  Q4: 2 	  Q0: 1 	 
34	 	 	78.0	 	 Q2: 2 	  Q1: 3 	 
35	 	 	73.5	 	 Q3: 2 	  Q2: 1 	  Q1: 3 	  Q4: 1 	 
36	 	 	51.7	 	 Q2: 0 	  Q3: 2 	  Q1: 2 	 
37	 	 	46.6	 	 Q4: 3 	  Q3: 3 	  Q2: 2 	 
38	 	 	47.3	 	 Q3: 1 	  Q0: 0 	 
39	 	 	24.2	 	 Q1: 1 	  Q4: 0 	  Q3: 3 	  Q0: 1 	 
40	 	 	75.6	 	 Q0: 3 	 
========================================================== 
TaskID 	 Duration 	 Skill 	 Predecessor IDs 
1	13	Q2:	1
2	24	Q0:	3
3	15	Q0:	1	1
4	11	Q3:	3
5	31	Q1:	2
6	29	Q3:	0
7	32	Q0:	3
8	10	Q1:	3
9	16	Q3:	0	8
10	23	Q3:	1	8
11	39	Q2:	0	9	2
12	13	Q4:	3
13	27	Q2:	0
14	37	Q4:	0
15	38	Q1:	2	14
16	9	Q1:	1
17	32	Q3:	2	16
18	33	Q2:	2	9
19	31	Q2:	2	9
20	25	Q0:	0
21	28	Q4:	1	10
22	13	Q4:	0	8
23	39	Q1:	3
24	16	Q2:	3
25	34	Q3:	1
26	25	Q1:	2
27	26	Q1:	2
28	31	Q2:	3	26
29	18	Q2:	3
30	34	Q4:	0	11	19	12	14
31	18	Q0:	3
32	14	Q0:	1
33	23	Q2:	3
34	17	Q3:	0
35	38	Q1:	3
36	13	Q2:	0	32
37	31	Q4:	0	35
38	37	Q4:	3	30
39	20	Q1:	3
40	36	Q4:	1	28
41	29	Q4:	1
42	22	Q2:	1
43	11	Q2:	1
44	23	Q0:	2	17	18
45	30	Q2:	1
46	37	Q4:	1	9
47	33	Q1:	2	35
48	26	Q2:	1	46
49	37	Q3:	1
50	29	Q3:	0	18
51	23	Q3:	0	23
52	18	Q2:	3	5	10	51
53	40	Q3:	0	51
54	10	Q3:	1	27	38	10
55	29	Q1:	2
56	11	Q0:	1	1
57	25	Q0:	1	13	10
58	20	Q0:	2
59	39	Q4:	0	32
60	38	Q4:	0
61	17	Q4:	0	50	14	54	32	25
62	22	Q3:	1	57	28	51
63	25	Q3:	2	10	60
64	12	Q1:	2	7	55	39
65	10	Q4:	2
66	31	Q1:	0	32	52
67	24	Q4:	1	44
68	38	Q2:	1	41
69	23	Q3:	1	25	7	32
70	26	Q1:	1	44	34	13	58	35
71	13	Q3:	0	28	62
72	14	Q3:	1	38	27
73	37	Q1:	3	9	48
74	15	Q3:	1	32
75	32	Q0:	0	47	66	54	23	25
76	26	Q3:	3	25	32
77	23	Q4:	3	68	54	56	22	14
78	27	Q2:	0	54
79	13	Q3:	0	36
80	29	Q3:	1
81	20	Q1:	1	24	56	61
82	31	Q1:	0
83	27	Q0:	3	70	31	19	48	43
84	40	Q4:	2	58	19	59
85	39	Q4:	1	65	11
86	35	Q1:	1	13	76
87	12	Q0:	0
88	23	Q2:	3	39	9	36
89	12	Q2:	3	16	67	31	48
90	13	Q3:	2	62	14
91	22	Q3:	0	7
92	34	Q0:	3	67
93	39	Q0:	3	33	29	13
94	25	Q0:	2
95	37	Q0:	2
96	27	Q1:	2	87	90	38
97	19	Q4:	1	41	20	47	32	50	19
98	32	Q1:	0	90	77	55
99	11	Q0:	0	81	5	92	14
100	17	Q4:	1	43	32	77	57	18
101	28	Q1:	2	56	76	85
102	13	Q1:	2	92	35	98
103	14	Q2:	2	82	74	97	85
104	17	Q3:	2	39	48	89	9
105	35	Q0:	1	6	27	80
106	12	Q2:	1	65
107	19	Q1:	3	84	5
108	10	Q3:	2	58
109	10	Q3:	1	45	66	9
110	19	Q4:	1	75	46	11	72
111	14	Q3:	1	18	49	50	108	8
112	11	Q3:	1	69	36	62
113	29	Q4:	3	42	67
114	30	Q3:	2	40	60
115	23	Q1:	1	102
116	12	Q3:	3	19	57
117	22	Q2:	3	78	53	102
118	32	Q2:	3	102	70	54	14
119	32	Q3:	2	77	60
120	29	Q2:	3	32
121	14	Q1:	0	14	90	12
122	25	Q2:	0	69
123	25	Q0:	1	36
124	20	Q0:	1	98	117	108	123	39	16
125	27	Q1:	0	8	2
126	31	Q4:	1	60	74	38	4	91
127	30	Q3:	3	26	39	44
128	9	Q4:	3	80	10	35
129	11	Q0:	0	75	30	81	96	84	72
130	12	Q4:	2	77	60	28	119	2	71
131	18	Q3:	1	3	102
132	14	Q3:	2	12	47	84	109	8
133	27	Q0:	0	67	58	37	14
134	20	Q4:	2	118	52	116	61	37
135	32	Q0:	2	58	40	134	36	55	84	77
136	38	Q4:	0	1	95
137	37	Q1:	1	9
138	39	Q2:	0	6	5	130	19
139	25	Q3:	2	89	128
140	25	Q0:	1	18	101	130
141	25	Q0:	2	4	80	40	137
142	37	Q0:	2	126	47	115	33
143	36	Q0:	0	96	46	73
144	21	Q3:	2	69
145	32	Q4:	2	53	52
146	40	Q1:	2	16	5	39
147	21	Q0:	3
148	36	Q2:	0	13	77	83	3	41	59	10	34
149	16	Q4:	2	102	5
150	11	Q0:	1	98	21	115	117	90
151	24	Q4:	2	144	12	133
152	21	Q2:	2	127
153	40	Q1:	2	112	30	106	73	102	120	54
154	10	Q4:	0	69	92	153	87	94	55	111	151
155	37	Q2:	2	118	45	7	100	81
156	32	Q0:	3
157	20	Q3:	3	5	71	57	93	6
158	17	Q2:	2	112	15	107	62
159	33	Q2:	1	102	25	99	93	146
160	28	Q1:	2	80	140	104	116	105	16
161	15	Q4:	2	29	46	103	160
162	14	Q1:	1	90	130	28	24	92
163	40	Q4:	1	41
164	23	Q4:	3	110	91
165	25	Q1:	3	94	101
166	9	Q0:	0	39	2	93	150
167	28	Q2:	2	111	35	15
168	25	Q2:	0	56	109	134	114
169	31	Q0:	2	78	163	105	38	21
170	13	Q0:	2	167	36	98
171	15	Q3:	0	30	52
172	39	Q4:	0	20	170	150	32	98
173	21	Q2:	1	4	117	167
174	13	Q0:	0	94
175	19	Q3:	2	97	172	1	55
176	10	Q1:	3	129	171	131	159	27	148
177	9	Q4:	3	147	57	168	84	1	139	42	130
178	32	Q0:	0	70	92	3	51	77	113
179	28	Q4:	2	107	151	125	36
180	23	Q0:	3	28	45	82	170	148	59	152	39	7	96
181	23	Q4:	2	58	67	121	148
182	24	Q1:	0	83	5	105	27	114	103	107	145
183	22	Q1:	0	146	120	70
184	16	Q4:	3	73	76
185	37	Q1:	2	117	1	77	65
186	23	Q3:	2	137	81	45	166	66
187	25	Q0:	2	143	89	164	60
188	9	Q2:	1	51	163	129	87
189	17	Q3:	2	162	103	130	45	52	109	61	92	155
190	19	Q0:	1	167	180	10	97	39
191	9	Q1:	1	11	160	186	61
192	30	Q4:	0	179	72	128	91	184	149	15
193	39	Q4:	2	114	11	26	33	92
194	11	Q2:	1	134	107
195	39	Q1:	2	52	137
196	27	Q2:	1	88	18	154	120	115	195
197	33	Q2:	3	126	113	127	92	173
198	16	Q4:	2	162	156	70
199	38	Q0:	0	98
200	17	Q3:	0	54	31	153	83	16
========================================================== 